1 1 1 7
1 1 2 10
1 1 3 11
1 2 1 12
1 2 2 13
1 2 3 11
2 1 1 12
2 1 2 10
2 1 3 10
2 2 1 11
2 2 2 12
2 3 1 12
2 3 2 11
3 1 1 8
3 1 2 7
3 2 1 9
3 2 2 10
3 2 3 12
3 3 1 11
3 3 2 10
3 3 3 11
4 1 1 10
4 1 2 11
4 2 1 10
4 2 2 11
4 3 1 12
4 3 2 10
4 3 3 11
5 1 1 7
5 1 4 6
5 1 3 5
5 2 6 4
5 2 4 10
5 2 5 11
5 2 2 9
6 1 3 8
6 1 5 7
6 2 4 6
6 2 6 5
6 2 1 6
6 2 2 7
7 1 2 6
7 1 3 8
7 2 1 9
7 2 4 10
7 2 5 11
7 2 6 9
8 1 1 8
8 1 3 7
8 2 4 4
8 2 5 5
8 2 3 6
8 2 6 7
